%%% static parameters %%%
timespan = 1;
Clients_N = [500];
Demand_W = [15];
Lt0 = [4];
Lt1 = [4];
SS_ = [0.85];
DS_D = [20];
K = [200];
MA = [500];
HC = [0.05];
%%% dynamic parameters %%%
lost_ratio_sales_ret_th = 0.00013564929318938656;
lost_ratio_sales_ret_w = 35;
lost_ratio_sales_dis_th = 3.9815150419686417e-07;
lost_ratio_sales_dis_w = 65;
lost_ratio_sales_fac_th = 0.00037640999082550765;
lost_ratio_sales_fac_w = 38;
stock_customer_MA_mean_relative_th = 0.2278349563994868;
stock_customer_MA_mean_relative_w = 31;
stock_distributor_MA_mean_relative_th = 0.9858328242675768;
stock_distributor_MA_mean_relative_w = 74;
stock_retailer_MA_mean_relative_th = 0.951006990329712;
stock_retailer_MA_mean_relative_w = 7;
stock_factory_MA_mean_relative_th = 0.3574563026245915;
stock_factory_MA_mean_relative_w = 39;
